Ordonnancement/plne/source/petit_instance/5job/5job_20.dat
data;
param nombreJob := 5;
param nombreRessource := 3;
param duree := 1 4 2 3 3 2 4 6 5 3;
param capaciteRessource := 1 6 2 10 3 11;
param besoinRessource : 1 2 3 :=
                    1   3 2 8
                    2   3 2 9
                    3   2 7 7
                    4   3 3 4
                    5   4 4 8;
end;

