Ordonnancement/plne/source/glpk_resultat/5job/5job_20.sol
Problem:    glpsolRcpsp
Rows:       230
Columns:    91 (90 integer, 90 binary)
Non-zeros:  1381
Status:     INTEGER OPTIMAL
Objective:  obj = 16 (MINimum)

   No.   Row name        Activity     Lower bound   Upper bound
------ ------------    ------------- ------------- -------------
     1 periode[1]                  4             4             = 
     2 periode[2]                  3             3             = 
     3 periode[3]                  2             2             = 
     4 periode[4]                  6             6             = 
     5 periode[5]                  3             3             = 
     6 complet[1,1]                4                           4 
     7 complet[1,2]                4                           4 
     8 complet[1,3]                4                           4 
     9 complet[1,4]                4                           4 
    10 complet[1,5]                4                           4 
    11 complet[1,6]                4                           4 
    12 complet[1,7]                4                           4 
    13 complet[1,8]                4                           4 
    14 complet[1,9]               -1                           4 
    15 complet[1,10]
                                   2                           4 
    16 complet[1,11]
                                   1                           4 
    17 complet[1,12]
                                   0                           4 
    18 complet[1,13]
                                   4                           4 
    19 complet[1,14]
                                   0                           4 
    20 complet[1,15]
                                   0                           4 
    21 complet[1,16]
                                   0                           4 
    22 complet[2,1]                3                           3 
    23 complet[2,2]                3                           3 
    24 complet[2,3]                3                           3 
    25 complet[2,4]                3                           3 
    26 complet[2,5]                3                           3 
    27 complet[2,6]                3                           3 
    28 complet[2,7]                3                           3 
    29 complet[2,8]                3                           3 
    30 complet[2,9]                3                           3 
    31 complet[2,10]
                                   3                           3 
    32 complet[2,11]
                                   3                           3 
    33 complet[2,12]
                                   3                           3 
    34 complet[2,13]
                                  -1                           3 
    35 complet[2,14]
                                   1                           3 
    36 complet[2,15]
                                   0                           3 
    37 complet[2,16]
                                   3                           3 
    38 complet[3,1]                2                           2 
    39 complet[3,2]                2                           2 
    40 complet[3,3]               -1                           2 
    41 complet[3,4]                0                           2 
    42 complet[3,5]                2                           2 
    43 complet[3,6]                0                           2 
    44 complet[3,7]                0                           2 
    45 complet[3,8]                0                           2 
    46 complet[3,9]                0                           2 
    47 complet[3,10]
                                   0                           2 
    48 complet[3,11]
                                   0                           2 
    49 complet[3,12]
                                   0                           2 
    50 complet[3,13]
                                   0                           2 
    51 complet[3,14]
                                   0                           2 
    52 complet[3,15]
                                   0                           2 
    53 complet[3,16]
                                   0                           2 
    54 complet[4,1]                4                           6 
    55 complet[4,2]                3                           6 
    56 complet[4,3]                2                           6 
    57 complet[4,4]                1                           6 
    58 complet[4,5]                0                           6 
    59 complet[4,6]                6                           6 
    60 complet[4,7]                0                           6 
    61 complet[4,8]                0                           6 
    62 complet[4,9]                0                           6 
    63 complet[4,10]
                                   0                           6 
    64 complet[4,11]
                                   0                           6 
    65 complet[4,12]
                                   0                           6 
    66 complet[4,13]
                                   0                           6 
    67 complet[4,14]
                                   0                           6 
    68 complet[4,15]
                                   0                           6 
    69 complet[4,16]
                                   0                           6 
    70 complet[5,1]                3                           3 
    71 complet[5,2]                3                           3 
    72 complet[5,3]                3                           3 
    73 complet[5,4]                3                           3 
    74 complet[5,5]                3                           3 
    75 complet[5,6]               -1                           3 
    76 complet[5,7]                1                           3 
    77 complet[5,8]                0                           3 
    78 complet[5,9]                3                           3 
    79 complet[5,10]
                                   0                           3 
    80 complet[5,11]
                                   0                           3 
    81 complet[5,12]
                                   0                           3 
    82 complet[5,13]
                                   0                           3 
    83 complet[5,14]
                                   0                           3 
    84 complet[5,15]
                                   0                           3 
    85 complet[5,16]
                                   0                           3 
    86 cmax[1,1]                  16            -0               
    87 cmax[1,2]                  16            -0               
    88 cmax[1,3]                  16            -0               
    89 cmax[1,4]                  16            -0               
    90 cmax[1,5]                  16            -0               
    91 cmax[1,6]                  16            -0               
    92 cmax[1,7]                  16            -0               
    93 cmax[1,8]                  16            -0               
    94 cmax[1,9]                  16            -0               
    95 cmax[1,10]                  6            -0               
    96 cmax[1,11]                  5            -0               
    97 cmax[1,12]                  4            -0               
    98 cmax[1,13]                  3            -0               
    99 cmax[1,14]                 16            -0               
   100 cmax[1,15]                 16            -0               
   101 cmax[1,16]                 16            -0               
   102 cmax[1,17]                 16            -0               
   103 cmax[1,18]                 16            -0               
   104 cmax[2,1]                  16            -0               
   105 cmax[2,2]                  16            -0               
   106 cmax[2,3]                  16            -0               
   107 cmax[2,4]                  16            -0               
   108 cmax[2,5]                  16            -0               
   109 cmax[2,6]                  16            -0               
   110 cmax[2,7]                  16            -0               
   111 cmax[2,8]                  16            -0               
   112 cmax[2,9]                  16            -0               
   113 cmax[2,10]                 16            -0               
   114 cmax[2,11]                 16            -0               
   115 cmax[2,12]                 16            -0               
   116 cmax[2,13]                 16            -0               
   117 cmax[2,14]                  2            -0               
   118 cmax[2,15]                  1            -0               
   119 cmax[2,16]                  0            -0               
   120 cmax[2,17]                 16            -0               
   121 cmax[2,18]                 16            -0               
   122 cmax[3,1]                  16            -0               
   123 cmax[3,2]                  16            -0               
   124 cmax[3,3]                  16            -0               
   125 cmax[3,4]                  12            -0               
   126 cmax[3,5]                  11            -0               
   127 cmax[3,6]                  16            -0               
   128 cmax[3,7]                  16            -0               
   129 cmax[3,8]                  16            -0               
   130 cmax[3,9]                  16            -0               
   131 cmax[3,10]                 16            -0               
   132 cmax[3,11]                 16            -0               
   133 cmax[3,12]                 16            -0               
   134 cmax[3,13]                 16            -0               
   135 cmax[3,14]                 16            -0               
   136 cmax[3,15]                 16            -0               
   137 cmax[3,16]                 16            -0               
   138 cmax[3,17]                 16            -0               
   139 cmax[3,18]                 16            -0               
   140 cmax[4,1]                  15            -0               
   141 cmax[4,2]                  14            -0               
   142 cmax[4,3]                  13            -0               
   143 cmax[4,4]                  12            -0               
   144 cmax[4,5]                  11            -0               
   145 cmax[4,6]                  10            -0               
   146 cmax[4,7]                  16            -0               
   147 cmax[4,8]                  16            -0               
   148 cmax[4,9]                  16            -0               
   149 cmax[4,10]                 16            -0               
   150 cmax[4,11]                 16            -0               
   151 cmax[4,12]                 16            -0               
   152 cmax[4,13]                 16            -0               
   153 cmax[4,14]                 16            -0               
   154 cmax[4,15]                 16            -0               
   155 cmax[4,16]                 16            -0               
   156 cmax[4,17]                 16            -0               
   157 cmax[4,18]                 16            -0               
   158 cmax[5,1]                  16            -0               
   159 cmax[5,2]                  16            -0               
   160 cmax[5,3]                  16            -0               
   161 cmax[5,4]                  16            -0               
   162 cmax[5,5]                  16            -0               
   163 cmax[5,6]                  16            -0               
   164 cmax[5,7]                   9            -0               
   165 cmax[5,8]                   8            -0               
   166 cmax[5,9]                   7            -0               
   167 cmax[5,10]                 16            -0               
   168 cmax[5,11]                 16            -0               
   169 cmax[5,12]                 16            -0               
   170 cmax[5,13]                 16            -0               
   171 cmax[5,14]                 16            -0               
   172 cmax[5,15]                 16            -0               
   173 cmax[5,16]                 16            -0               
   174 cmax[5,17]                 16            -0               
   175 cmax[5,18]                 16            -0               
   176 ressource[1,1]
                                   3                           6 
   177 ressource[1,2]
                                   3                           6 
   178 ressource[1,3]
                                   3                           6 
   179 ressource[1,4]
                                   5                           6 
   180 ressource[1,5]
                                   5                           6 
   181 ressource[1,6]
                                   3                           6 
   182 ressource[1,7]
                                   4                           6 
   183 ressource[1,8]
                                   4                           6 
   184 ressource[1,9]
                                   4                           6 
   185 ressource[1,10]
                                   3                           6 
   186 ressource[1,11]
                                   3                           6 
   187 ressource[1,12]
                                   3                           6 
   188 ressource[1,13]
                                   3                           6 
   189 ressource[1,14]
                                   3                           6 
   190 ressource[1,15]
                                   3                           6 
   191 ressource[1,16]
                                   3                           6 
   192 ressource[1,17]
                                   0                           6 
   193 ressource[1,18]
                                   0                           6 
   194 ressource[2,1]
                                   3                          10 
   195 ressource[2,2]
                                   3                          10 
   196 ressource[2,3]
                                   3                          10 
   197 ressource[2,4]
                                  10                          10 
   198 ressource[2,5]
                                  10                          10 
   199 ressource[2,6]
                                   3                          10 
   200 ressource[2,7]
                                   4                          10 
   201 ressource[2,8]
                                   4                          10 
   202 ressource[2,9]
                                   4                          10 
   203 ressource[2,10]
                                   2                          10 
   204 ressource[2,11]
                                   2                          10 
   205 ressource[2,12]
                                   2                          10 
   206 ressource[2,13]
                                   2                          10 
   207 ressource[2,14]
                                   2                          10 
   208 ressource[2,15]
                                   2                          10 
   209 ressource[2,16]
                                   2                          10 
   210 ressource[2,17]
                                   0                          10 
   211 ressource[2,18]
                                   0                          10 
   212 ressource[3,1]
                                   4                          11 
   213 ressource[3,2]
                                   4                          11 
   214 ressource[3,3]
                                   4                          11 
   215 ressource[3,4]
                                  11                          11 
   216 ressource[3,5]
                                  11                          11 
   217 ressource[3,6]
                                   4                          11 
   218 ressource[3,7]
                                   8                          11 
   219 ressource[3,8]
                                   8                          11 
   220 ressource[3,9]
                                   8                          11 
   221 ressource[3,10]
                                   8                          11 
   222 ressource[3,11]
                                   8                          11 
   223 ressource[3,12]
                                   8                          11 
   224 ressource[3,13]
                                   8                          11 
   225 ressource[3,14]
                                   9                          11 
   226 ressource[3,15]
                                   9                          11 
   227 ressource[3,16]
                                   9                          11 
   228 ressource[3,17]
                                   0                          11 
   229 ressource[3,18]
                                   0                          11 
   230 obj                        16                             

   No. Column name       Activity     Lower bound   Upper bound
------ ------------    ------------- ------------- -------------
     1 x[1,1]       *              0             0             1 
     2 x[1,2]       *              0             0             1 
     3 x[1,3]       *              0             0             1 
     4 x[1,4]       *              0             0             1 
     5 x[1,5]       *              0             0             1 
     6 x[1,6]       *              0             0             1 
     7 x[1,7]       *              0             0             1 
     8 x[1,8]       *              0             0             1 
     9 x[1,9]       *              0             0             1 
    10 x[1,10]      *              1             0             1 
    11 x[1,11]      *              1             0             1 
    12 x[1,12]      *              1             0             1 
    13 x[1,13]      *              1             0             1 
    14 x[1,14]      *              0             0             1 
    15 x[1,15]      *              0             0             1 
    16 x[1,16]      *              0             0             1 
    17 x[1,17]      *              0             0             1 
    18 x[1,18]      *              0             0             1 
    19 x[2,1]       *              0             0             1 
    20 x[2,2]       *              0             0             1 
    21 x[2,3]       *              0             0             1 
    22 x[2,4]       *              0             0             1 
    23 x[2,5]       *              0             0             1 
    24 x[2,6]       *              0             0             1 
    25 x[2,7]       *              0             0             1 
    26 x[2,8]       *              0             0             1 
    27 x[2,9]       *              0             0             1 
    28 x[2,10]      *              0             0             1 
    29 x[2,11]      *              0             0             1 
    30 x[2,12]      *              0             0             1 
    31 x[2,13]      *              0             0             1 
    32 x[2,14]      *              1             0             1 
    33 x[2,15]      *              1             0             1 
    34 x[2,16]      *              1             0             1 
    35 x[2,17]      *              0             0             1 
    36 x[2,18]      *              0             0             1 
    37 x[3,1]       *              0             0             1 
    38 x[3,2]       *              0             0             1 
    39 x[3,3]       *              0             0             1 
    40 x[3,4]       *              1             0             1 
    41 x[3,5]       *              1             0             1 
    42 x[3,6]       *              0             0             1 
    43 x[3,7]       *              0             0             1 
    44 x[3,8]       *              0             0             1 
    45 x[3,9]       *              0             0             1 
    46 x[3,10]      *              0             0             1 
    47 x[3,11]      *              0             0             1 
    48 x[3,12]      *              0             0             1 
    49 x[3,13]      *              0             0             1 
    50 x[3,14]      *              0             0             1 
    51 x[3,15]      *              0             0             1 
    52 x[3,16]      *              0             0             1 
    53 x[3,17]      *              0             0             1 
    54 x[3,18]      *              0             0             1 
    55 x[4,1]       *              1             0             1 
    56 x[4,2]       *              1             0             1 
    57 x[4,3]       *              1             0             1 
    58 x[4,4]       *              1             0             1 
    59 x[4,5]       *              1             0             1 
    60 x[4,6]       *              1             0             1 
    61 x[4,7]       *              0             0             1 
    62 x[4,8]       *              0             0             1 
    63 x[4,9]       *              0             0             1 
    64 x[4,10]      *              0             0             1 
    65 x[4,11]      *              0             0             1 
    66 x[4,12]      *              0             0             1 
    67 x[4,13]      *              0             0             1 
    68 x[4,14]      *              0             0             1 
    69 x[4,15]      *              0             0             1 
    70 x[4,16]      *              0             0             1 
    71 x[4,17]      *              0             0             1 
    72 x[4,18]      *              0             0             1 
    73 x[5,1]       *              0             0             1 
    74 x[5,2]       *              0             0             1 
    75 x[5,3]       *              0             0             1 
    76 x[5,4]       *              0             0             1 
    77 x[5,5]       *              0             0             1 
    78 x[5,6]       *              0             0             1 
    79 x[5,7]       *              1             0             1 
    80 x[5,8]       *              1             0             1 
    81 x[5,9]       *              1             0             1 
    82 x[5,10]      *              0             0             1 
    83 x[5,11]      *              0             0             1 
    84 x[5,12]      *              0             0             1 
    85 x[5,13]      *              0             0             1 
    86 x[5,14]      *              0             0             1 
    87 x[5,15]      *              0             0             1 
    88 x[5,16]      *              0             0             1 
    89 x[5,17]      *              0             0             1 
    90 x[5,18]      *              0             0             1 
    91 z                          16                             

Integer feasibility conditions:

KKT.PE: max.abs.err = 0.00e+00 on row 0
        max.rel.err = 0.00e+00 on row 0
        High quality

KKT.PB: max.abs.err = 0.00e+00 on row 0
        max.rel.err = 0.00e+00 on row 0
        High quality

End of output
